19 965
520 7 474 7 386 7 236 10 59 16
528 7 482 7 360 7 199 12
525 7 479 7 358 7 163 9 10 11 784 18
525 7 479 7 355 7 106 9 927 13
525 7 476 7 357 7 158 9 8 11 846 15 690 20 570 28
525 7 482 7 362 7 201 9 13 11 820 18
525 7 477 7 391 7 243 9 78 11 916 15
525 7 505 7 381 7 218 9 50 11 850 15 664 21
525 7 482 7 367 7 213 9 31 11 790 18
525 7 446 7 267 7 66 9 891 11 731 18
525 7 482 7 365 7 212 9 29 11 823 18
533 7
533 7
533 7
533 7
533 7
533 7
529 7 483 7 293 10
529 7 485 7 294 10
